p edge 47 100
e 1 5
e 1 9
e 1 10
e 1 16
e 1 18
e 1 20
e 1 28
e 1 29
e 2 4
e 2 7
e 2 15
e 2 17
e 2 31
e 2 34
e 2 38
e 2 44
e 3 4
e 3 5
e 3 6
e 3 8
e 3 11
e 3 12
e 3 13
e 3 15
e 4 9
e 4 10
e 4 12
e 4 15
e 4 22
e 4 44
e 5 7
e 5 8
e 5 10
e 5 12
e 5 19
e 5 28
e 6 9
e 6 13
e 6 15
e 6 21
e 6 24
e 6 25
e 6 30
e 6 32
e 6 37
e 6 46
e 7 20
e 7 23
e 7 27
e 7 28
e 8 13
e 8 39
e 9 12
e 9 13
e 9 16
e 9 21
e 9 22
e 9 24
e 9 25
e 9 30
e 9 37
e 9 46
e 10 14
e 10 19
e 10 22
e 11 14
e 11 19
e 12 22
e 12 24
e 13 15
e 13 24
e 13 32
e 13 37
e 15 32
e 16 45
e 16 47
e 17 18
e 17 34
e 18 29
e 18 36
e 19 26
e 19 35
e 21 25
e 21 30
e 21 42
e 21 46
e 23 27
e 23 28
e 24 37
e 25 30
e 25 42
e 26 27
e 26 35
e 27 28
e 29 40
e 29 41
e 30 46
e 31 34
e 33 43
e 40 41
